c Command line: hgen8 170 40
p cnf 170 270
107 82 152 134 0
120 47 162 6 0
38 75 91 78 0
90 20 67 72 0
30 71 65 88 0
166 136 108 2 0
146 122 112 153 0
76 158 54 18 0
12 5 69 35 0
143 129 25 105 0
141 8 114 139 0
16 29 21 32 0
164 23 140 52 0
84 111 60 101 0
102 95 137 130 0
167 104 26 109 0
7 148 110 116 0
165 106 74 33 0
154 14 138 43 0
45 1 155 113 0
62 168 70 80 0
127 117 125 40 0
150 34 57 55 0
4 149 156 56 0
19 100 36 151 0
161 73 96 99 0
160 77 13 94 0
37 15 11 89 0
81 50 145 93 0
132 24 115 97 0
118 17 68 3 0
83 66 86 79 0
147 126 163 159 0
39 53 119 144 0
142 170 27 63 0
-1 -2 0
-1 -3 0
-1 -4 0
-1 -5 0
-2 -3 0
-2 -4 0
-2 -5 0
-3 -4 0
-3 -5 0
-4 -5 0
-6 -7 0
-6 -8 0
-7 -8 0
-11 -12 0
-11 -13 0
-11 -14 0
-11 -15 0
-12 -13 0
-12 -14 0
-12 -15 0
-13 -14 0
-13 -15 0
-14 -15 0
-16 -17 0
-16 -18 0
-16 -19 0
-16 -20 0
-17 -18 0
-17 -19 0
-17 -20 0
-18 -19 0
-18 -20 0
-19 -20 0
-21 -23 0
-21 -24 0
-21 -25 0
-23 -24 0
-23 -25 0
-24 -25 0
-26 -27 0
-26 -29 0
-26 -30 0
-27 -29 0
-27 -30 0
-29 -30 0
-32 -33 0
-32 -34 0
-32 -35 0
-33 -34 0
-33 -35 0
-34 -35 0
-36 -37 0
-36 -38 0
-36 -39 0
-36 -40 0
-37 -38 0
-37 -39 0
-37 -40 0
-38 -39 0
-38 -40 0
-39 -40 0
-43 -45 0
-47 -50 0
-52 -53 0
-52 -54 0
-52 -55 0
-53 -54 0
-53 -55 0
-54 -55 0
-56 -57 0
-56 -60 0
-57 -60 0
-62 -63 0
-62 -65 0
-63 -65 0
-66 -67 0
-66 -68 0
-66 -69 0
-66 -70 0
-67 -68 0
-67 -69 0
-67 -70 0
-68 -69 0
-68 -70 0
-69 -70 0
-71 -72 0
-71 -73 0
-71 -74 0
-71 -75 0
-72 -73 0
-72 -74 0
-72 -75 0
-73 -74 0
-73 -75 0
-74 -75 0
-76 -77 0
-76 -78 0
-76 -79 0
-76 -80 0
-77 -78 0
-77 -79 0
-77 -80 0
-78 -79 0
-78 -80 0
-79 -80 0
-81 -82 0
-81 -83 0
-81 -84 0
-82 -83 0
-82 -84 0
-83 -84 0
-86 -88 0
-86 -89 0
-86 -90 0
-88 -89 0
-88 -90 0
-89 -90 0
-91 -93 0
-91 -94 0
-91 -95 0
-93 -94 0
-93 -95 0
-94 -95 0
-96 -97 0
-96 -99 0
-96 -100 0
-97 -99 0
-97 -100 0
-99 -100 0
-101 -102 0
-101 -104 0
-101 -105 0
-102 -104 0
-102 -105 0
-104 -105 0
-106 -107 0
-106 -108 0
-106 -109 0
-106 -110 0
-107 -108 0
-107 -109 0
-107 -110 0
-108 -109 0
-108 -110 0
-109 -110 0
-111 -112 0
-111 -113 0
-111 -114 0
-111 -115 0
-112 -113 0
-112 -114 0
-112 -115 0
-113 -114 0
-113 -115 0
-114 -115 0
-116 -117 0
-116 -118 0
-116 -119 0
-116 -120 0
-117 -118 0
-117 -119 0
-117 -120 0
-118 -119 0
-118 -120 0
-119 -120 0
-122 -125 0
-126 -127 0
-126 -129 0
-126 -130 0
-127 -129 0
-127 -130 0
-129 -130 0
-132 -134 0
-136 -137 0
-136 -138 0
-136 -139 0
-136 -140 0
-137 -138 0
-137 -139 0
-137 -140 0
-138 -139 0
-138 -140 0
-139 -140 0
-141 -142 0
-141 -143 0
-141 -144 0
-141 -145 0
-142 -143 0
-142 -144 0
-142 -145 0
-143 -144 0
-143 -145 0
-144 -145 0
-146 -147 0
-146 -148 0
-146 -149 0
-146 -150 0
-147 -148 0
-147 -149 0
-147 -150 0
-148 -149 0
-148 -150 0
-149 -150 0
-151 -152 0
-151 -153 0
-151 -154 0
-151 -155 0
-152 -153 0
-152 -154 0
-152 -155 0
-153 -154 0
-153 -155 0
-154 -155 0
-156 -158 0
-156 -159 0
-156 -160 0
-158 -159 0
-158 -160 0
-159 -160 0
-161 -162 0
-161 -163 0
-161 -164 0
-161 -165 0
-162 -163 0
-162 -164 0
-162 -165 0
-163 -164 0
-163 -165 0
-164 -165 0
-166 -167 0
-166 -168 0
-166 -170 0
-167 -168 0
-167 -170 0
-168 -170 0
